c b=3,c=1809
p cnf 17 39
3 -6 0
3 -10 0
1 2 3 -14 0
2 3 -15 0
1 3 -16 0
-3 6 0
-3 10 0
1 2 -3 14 0
1 -3 15 0
1 2 -3 16 0
2 -5 0
2 -9 0
1 2 -13 0
1 2 -17 0
-2 3 14 0
3 -17 0
-2 -3 -14 0
-2 -3 17 0
-2 5 0
-2 9 0
1 -2 13 0
1 -2 15 0
1 -2 -16 0
1 -4 0
1 -8 0
1 -12 0
-1 3 14 0
-1 -3 -14 0
-1 -3 17 0
-1 2 13 0
-1 2 -16 0
-1 -2 -13 0
-1 -2 16 0
-1 4 0
-1 8 0
-1 12 0
-1 -15 0
-7 0
-11 0
